10 10 4

0 347 259 368 215 497 444 90 204 189 
465 0 459 431 312 226 252 356 170 200 
429 299 0 275 289 64 357 411 266 430 
443 473 249 0 145 319 458 463 240 210 
162 281 364 57 0 245 79 438 57 255 
396 119 376 302 254 0 381 77 250 151 
140 367 368 70 309 340 0 269 405 159 
434 123 349 143 443 336 458 0 450 81 
243 144 295 448 246 120 79 499 0 80 
167 282 280 268 372 353 135 148 162 0 

109.2 0 4
109.2 1 0
109.2 2 6
109.2 3 0
109.2 4 5
109.2 5 3
109.2 6 5
109.2 7 3
109.2 8 9
109.2 9 3

